Minimize
  - 9 y_0 - 8 y_1 - 25 y_2 - 28 y_3 - 37 y_5 - 25 y_6 - 33 y_7 - 23 y_8
   - 28 y_9 + 12 x_0_1 + 59 x_0_2 + 68 x_0_3 + 79 x_0_7 + 65 x_1_2
   + 90 x_1_5 + 68 x_1_7 + 59 x_1_8 + 74 x_1_9 + 41 x_2_5 + 24 x_2_6
   + 15 x_2_8 + 56 x_3_4 + 102 x_3_6 + 74 x_4_5 + 49 x_4_6 + 67 x_4_7
   + 57 x_4_9 + 97 x_5_7 + 111 x_6_7 + 49 x_6_9 + 105 x_7_8 + 40 x_8_9
   + 40 x_8_9 + 40 x_8_9 + 40 x_8_9 + 40 x_8_9 + 40 x_8_9 + 40 x_8_9
   + 40 x_8_9 + 40 x_8_9 + 40 x_8_9 + 40 x_8_9 + 40 x_8_9 + 40 x_8_9
   + 40 x_8_9 + 40 x_8_9 + 40 x_8_9 + 40 x_8_9 + 40 x_8_9 + 40 x_8_9
   + 40 x_8_9 + 40 x_8_9 + 40 x_8_9 + 40 x_8_9 + 40 x_8_9 + 40 x_8_9
   + 40 x_8_9 + 40 x_8_9 + 40 x_8_9 + 40 x_8_9 + 40 x_8_9 + 40 x_8_9
   + 40 x_8_9 + 40 x_8_9 + 40 x_8_9 + 40 x_8_9 + 40 x_8_9 + 40 x_8_9
   + 40 x_8_9 + 40 x_8_9 + 40 x_8_9 + 40 x_8_9 + 40 x_8_9 + 40 x_8_9
   + 40 x_8_9 + 40 x_8_9 + 40 x_8_9 + 40 x_8_9 + 40 x_8_9 + 40 x_8_9
   + 40 x_8_9 + 40 x_8_9 + 40 x_8_9 + 40 x_8_9 + 40 x_8_9 + 40 x_8_9
   + 40 x_8_9 + 40 x_8_9 + 40 x_8_9 + 40 x_8_9 + 40 x_8_9 + 40 x_8_9
   + 40 x_8_9 + 40 x_8_9 + 40 x_8_9 + 40 x_8_9 + 40 x_8_9 + 40 x_8_9
   + 40 x_8_9 + 40 x_8_9 + 40 x_8_9 + 40 x_8_9 + 40 x_8_9 + 40 x_8_9
   + 40 x_8_9 + 40 x_8_9 + 40 x_8_9 + 40 x_8_9 + 40 x_8_9 + 40 x_8_9
   + 40 x_8_9 + 40 x_8_9 + 40 x_8_9 + 40 x_8_9 + 40 x_8_9 + 40 x_8_9
   + 40 x_8_9 + 40 x_8_9 + 40 x_8_9 + 40 x_8_9 + 40 x_8_9 + 40 x_8_9
   + 40 x_8_9 + 40 x_8_9 + 40 x_8_9 + 40 x_8_9 + 40 x_8_9 + 40 x_8_9
   + 40 x_8_9 + 40 x_8_9 + 40 x_8_9 + 40 x_8_9 + 40 x_8_9 + 40 x_8_9
   + 40 x_8_9 + 40 x_8_9 + 40 x_8_9 + 40 x_8_9 + 40 x_8_9 + 40 x_8_9
   + 40 x_8_9 + 40 x_8_9 + 40 x_8_9 + 40 x_8_9 + 40 x_8_9 + 40 x_8_9
   + 40 x_8_9 + 40 x_8_9 + 40 x_8_9 + 40 x_8_9 + 40 x_8_9 + 40 x_8_9
   + 40 x_8_9 + 40 x_8_9 + 40 x_8_9 + 40 x_8_9 + 40 x_8_9 + 40 x_8_9
   + 40 x_8_9 + 40 x_8_9 + 40 x_8_9 + 40 x_8_9 + 40 x_8_9 + 40 x_8_9
   + 40 x_8_9 + 40 x_8_9 + 40 x_8_9 + 40 x_8_9 + 40 x_8_9 + 40 x_8_9
   + 40 x_8_9 + 40 x_8_9 + 40 x_8_9 + 40 x_8_9 + 40 x_8_9 + 40 x_8_9
   + 40 x_8_9 + 40 x_8_9 + 40 x_8_9 + 40 x_8_9 + 40 x_8_9 + 40 x_8_9
   + 40 x_8_9 + 40 x_8_9 + 40 x_8_9 + 40 x_8_9 + 40 x_8_9 + 40 x_8_9
   + 40 x_8_9 + 40 x_8_9 + 40 x_8_9 + 40 x_8_9 + 40 x_8_9 + 40 x_8_9
   + 40 x_8_9 + 40 x_8_9 + 40 x_8_9 + 40 x_8_9 + 40 x_8_9 + 40 x_8_9
   + 40 x_8_9 + 40 x_8_9 + 40 x_8_9 + 40 x_8_9 + 40 x_8_9 + 40 x_8_9
   + 40 x_8_9 + 40 x_8_9 + 40 x_8_9 + 40 x_8_9 + 40 x_8_9 + 40 x_8_9
   + 40 x_8_9 + 40 x_8_9 + 40 x_8_9 + 40 x_8_9 + 40 x_8_9 + 40 x_8_9
   + 40 x_8_9 + 40 x_8_9 + 40 x_8_9 + 40 x_8_9 + 40 x_8_9 + 40 x_8_9
   + 40 x_8_9 + 40 x_8_9 + 40 x_8_9 + 40 x_8_9 + 40 x_8_9 + 40 x_8_9
   + 40 x_8_9 + 40 x_8_9 + 40 x_8_9 + 40 x_8_9 + 40 x_8_9 + 40 x_8_9
   + 40 x_8_9 + 40 x_8_9 + 40 x_8_9 + 40 x_8_9 + 216 Constant
Subject To
 c_0: y_0 = 1
 c_1_0: y_0 >= 1
 c_1_1: y_1 >= 1
 c_1_2: y_2 >= 1
 c_1_3: y_3 >= 1
 c_1_4: y_4 >= 1
 c_1_5: y_5 >= 1
 c_1_6: y_6 >= 1
 c_1_7: y_7 >= 1
 c_1_8: y_8 >= 1
 c_1_9: y_9 >= 1
 c_2_0: - 2 y_0 + x_0_1 + x_0_2 + x_0_3 + x_0_7 = 0
 c_2_1: - 2 y_1 + x_0_1 + x_1_2 + x_1_5 + x_1_7 + x_1_8 + x_1_9 = 0
 c_2_2: - 2 y_2 + x_0_2 + x_1_2 + x_2_5 + x_2_6 + x_2_8 = 0
 c_2_3: - 2 y_3 + x_0_3 + x_3_4 + x_3_6 = 0
 c_2_4: - 2 y_4 + x_3_4 + x_4_5 + x_4_6 + x_4_7 + x_4_9 = 0
 c_2_5: - 2 y_5 + x_1_5 + x_2_5 + x_4_5 + x_5_7 = 0
 c_2_6: - 2 y_6 + x_2_6 + x_3_6 + x_4_6 + x_6_7 + x_6_9 = 0
 c_2_7: - 2 y_7 + x_0_7 + x_1_7 + x_4_7 + x_5_7 + x_6_7 + x_7_8 = 0
 c_2_8: - 2 y_8 + x_1_8 + x_2_8 + x_7_8 + 209 x_8_9 = 0
 c_2_9: - 2 y_9 + x_1_9 + x_4_9 + x_6_9 + 209 x_8_9 = 0
Bounds
 Constant = 1
Binaries
 y_0 y_1 y_2 y_3 y_4 y_5 y_6 y_7 y_8 y_9 x_0_1 x_0_2 x_0_3 x_0_7 x_1_2
 x_1_5 x_1_7 x_1_8 x_1_9 x_2_5 x_2_6 x_2_8 x_3_4 x_3_6 x_4_5 x_4_6 x_4_7
 x_4_9 x_5_7 x_6_7 x_6_9 x_7_8 x_8_9 x_8_9 x_8_9 x_8_9 x_8_9 x_8_9 x_8_9
 x_8_9 x_8_9 x_8_9 x_8_9 x_8_9 x_8_9 x_8_9 x_8_9 x_8_9 x_8_9 x_8_9 x_8_9
 x_8_9 x_8_9 x_8_9 x_8_9 x_8_9 x_8_9 x_8_9 x_8_9 x_8_9 x_8_9 x_8_9 x_8_9
 x_8_9 x_8_9 x_8_9 x_8_9 x_8_9 x_8_9 x_8_9 x_8_9 x_8_9 x_8_9 x_8_9 x_8_9
 x_8_9 x_8_9 x_8_9 x_8_9 x_8_9 x_8_9 x_8_9 x_8_9 x_8_9 x_8_9 x_8_9 x_8_9
 x_8_9 x_8_9 x_8_9 x_8_9 x_8_9 x_8_9 x_8_9 x_8_9 x_8_9 x_8_9 x_8_9 x_8_9
 x_8_9 x_8_9 x_8_9 x_8_9 x_8_9 x_8_9 x_8_9 x_8_9 x_8_9 x_8_9 x_8_9 x_8_9
 x_8_9 x_8_9 x_8_9 x_8_9 x_8_9 x_8_9 x_8_9 x_8_9 x_8_9 x_8_9 x_8_9 x_8_9
 x_8_9 x_8_9 x_8_9 x_8_9 x_8_9 x_8_9 x_8_9 x_8_9 x_8_9 x_8_9 x_8_9 x_8_9
 x_8_9 x_8_9 x_8_9 x_8_9 x_8_9 x_8_9 x_8_9 x_8_9 x_8_9 x_8_9 x_8_9 x_8_9
 x_8_9 x_8_9 x_8_9 x_8_9 x_8_9 x_8_9 x_8_9 x_8_9 x_8_9 x_8_9 x_8_9 x_8_9
 x_8_9 x_8_9 x_8_9 x_8_9 x_8_9 x_8_9 x_8_9 x_8_9 x_8_9 x_8_9 x_8_9 x_8_9
 x_8_9 x_8_9 x_8_9 x_8_9 x_8_9 x_8_9 x_8_9 x_8_9 x_8_9 x_8_9 x_8_9 x_8_9
 x_8_9 x_8_9 x_8_9 x_8_9 x_8_9 x_8_9 x_8_9 x_8_9 x_8_9 x_8_9 x_8_9 x_8_9
 x_8_9 x_8_9 x_8_9 x_8_9 x_8_9 x_8_9 x_8_9 x_8_9 x_8_9 x_8_9 x_8_9 x_8_9
 x_8_9 x_8_9 x_8_9 x_8_9 x_8_9 x_8_9 x_8_9 x_8_9 x_8_9 x_8_9 x_8_9 x_8_9
 x_8_9 x_8_9 x_8_9 x_8_9 x_8_9 x_8_9 x_8_9 x_8_9 x_8_9 x_8_9 x_8_9 x_8_9
 x_8_9 x_8_9 x_8_9 x_8_9 x_8_9 x_8_9 x_8_9 x_8_9 x_8_9 x_8_9
End
